200
0
1
2
3
5
6
8
9
10
11
12
15
17
19
21
22
23
26
29
30
31
33
36
37
38
42
43
44
47
48
50
53
54
56
59
61
62
64
65
66
67
70
71
75
77
81
82
83
84
85
88
89
93
94
95
96
97
98
99
100
102
104
105
106
108
114
115
116
121
123
127
129
130
132
134
136
137
139
140
141
148
151
155
156
158
159
161
163
165
166
167
168
169
170
173
176
177
178
179
180
181
188
189
192
196
197
198
199
199
198
197
196
195
194
193
192
191
190
189
188
187
186
184
183
182
181
180
179
178
177
175
174
173
172
171
169
168
167
165
164
163
162
161
160
159
158
157
156
155
153
152
151
150
149
148
147
146
145
144
142
141
140
139
138
137
136
135
134
133
132
131
129
128
127
126
125
124
123
122
121
120
119
118
117
116
115
114
113
112
111
110
109
108
107
106
105
103
102
101
100
END